InboundTrucks  = 10;
OutboundTrucks = 10;
InboundDoors   = 4;
OutboundDoors  = 4;
ReleaseTime    = [30,75,69,16,47,117,77,60,80,74];
UnloadTime     = [30,32,26,22,38,29,29,32,29,27];
LoadTime       = [5,10,6,12,13,12,13,6,9,10];
TransferTime   = [| 6,0,5,0,0,0,0,8,6,5 | 0,2,5,0,0,8,6,0,4,2 | 3,0,5,0,0,4,8,8,0,7 | 0,0,5,0,5,0,0,0,5,3 | 6,0,0,0,0,0,0,0,0,0 | 5,4,0,6,7,0,0,4,0,7 | 4,6,2,0,6,0,6,6,0,0 | 0,7,5,0,8,7,6,6,4,3 | 3,0,0,6,4,6,0,0,0,0 | 8,4,0,0,3,0,0,0,0,7 |];
